sat
(:cnf-encoding-aux-vars 4
 :eliminated-vars       63
 :max-memory            18.42
 :memory                18.11
 :nlsat-conflicts       6
 :nlsat-decisions       17
 :nlsat-learned-added   5
 :nlsat-propagations    48
 :nlsat-stages          11
 :num-allocs            10801
 :rlimit-count          16362
 :time                  0.01
 :total-time            0.02)
